10
0, 505, 564, 496, 524, 92, 416, 587, 754, 386
505, 0, 465, 298, 547, 551, 431, 474, 342, 803
564, 465, 0, 167, 920, 530, 151, 24, 380, 606
496, 298, 167, 0, 775, 490, 178, 177, 290, 647
524, 547, 920, 775, 0, 616, 812, 938, 889, 905
92, 551, 530, 490, 616, 0, 379, 554, 764, 297
416, 431, 151, 178, 812, 379, 0, 175, 462, 478
587, 474, 24, 177, 938, 554, 175, 0, 370, 627
754, 342, 380, 290, 889, 764, 462, 370, 0, 937
386, 803, 606, 647, 905, 297, 478, 627, 937, 0
